c FILE: DSJC250.5
c
c SOURCE: David Johnson (dsj@research.att.com)
c
c DESCRIPTION: Random graph used in the paper
c              "Optimization by Simulated Annealing: An
c               Experimental Evaluation; Part II, Graph
c               Coloring and Number Partitioning" by
c              David S. Johnson, Cecilia R. Aragon, 
c              Lyle A. McGeoch and Catherine Schevon
c              Operations Research, 39, 378-406 (1991)
c
p edge 250 31336
e 2 1
e 3 2
e 5 2
e 5 4
e 6 1
e 6 2
e 7 1
e 7 3
e 7 4
e 8 1
e 8 2
e 8 3
e 8 6
e 8 7
e 9 2
e 9 3
e 9 5
e 9 7
e 10 2
e 10 3
e 10 4
e 10 6
e 10 7
e 10 9
e 11 1
e 11 3
e 11 9
e 12 2
e 12 3
e 12 4
e 12 5
e 12 6
e 12 8
e 12 10
e 12 11
e 13 1
e 13 2
e 13 4
e 13 5
e 13 7
e 13 8
e 13 9
e 13 10
e 13 11
e 13 12
e 14 1
e 14 2
e 14 4
e 14 5
e 14 6
e 14 8
e 14 10
e 15 1
e 15 3
e 15 8
e 15 9
e 15 10
e 15 11
e 15 12
e 15 13
e 16 3
e 16 4
e 16 7
e 16 8
e 16 10
e 16 11
e 16 12
e 16 14
e 16 15
e 17 4
e 17 5
e 17 6
e 17 7
e 17 11
e 17 13
e 17 15
e 17 16
e 18 4
e 18 7
e 18 8
e 18 9
e 18 14
e 18 16
e 18 17
e 19 2
e 19 6
e 19 7
e 19 12
e 19 18
e 20 1
e 20 2
e 20 3
e 20 4
e 20 10
e 20 12
e 20 13
e 20 14
e 21 2
e 21 7
e 21 10
e 21 11
e 21 12
e 21 13
e 21 14
e 21 16
e 21 17
e 21 18
e 22 1
e 22 2
e 22 7
e 22 8
e 22 11
e 22 13
e 22 14
e 22 16
e 22 17
e 22 18
e 23 1
e 23 2
e 23 3
e 23 4
e 23 5
e 23 7
e 23 8
e 23 10
e 23 11
e 23 12
e 23 13
e 23 14
e 23 17
e 23 18
e 23 21
e 24 1
e 24 2
e 24 3
e 24 5
e 24 6
e 24 8
e 24 10
e 24 12
e 24 15
e 24 18
e 24 20
e 24 21
e 25 4
e 25 5
e 25 8
e 25 9
e 25 11
e 25 16
e 25 17
e 25 19
e 25 21
e 25 23
e 26 2
e 26 3
e 26 5
e 26 7
e 26 9
e 26 13
e 26 16
e 26 17
e 26 19
e 26 20
e 26 22
e 26 23
e 26 25
e 27 2
e 27 5
e 27 7
e 27 9
e 27 11
e 27 13
e 27 18
e 27 19
e 27 20
e 27 21
e 28 1
e 28 2
e 28 4
e 28 6
e 28 7
e 28 10
e 28 13
e 28 14
e 28 15
e 28 17
e 28 18
e 28 19
e 28 20
e 28 21
e 28 23
e 28 24
e 28 25
e 28 26
e 28 27
e 29 2
e 29 4
e 29 6
e 29 7
e 29 8
e 29 9
e 29 10
e 29 12
e 29 17
e 29 18
e 29 22
e 29 25
e 29 26
e 29 27
e 29 28
e 30 1
e 30 2
e 30 4
e 30 5
e 30 6
e 30 7
e 30 9
e 30 10
e 30 11
e 30 13
e 30 17
e 30 19
e 30 20
e 31 1
e 31 6
e 31 7
e 31 11
e 31 12
e 31 13
e 31 14
e 31 17
e 31 18
e 31 19
e 31 21
e 31 29
e 32 2
e 32 3
e 32 4
e 32 5
e 32 13
e 32 14
e 32 15
e 32 17
e 32 18
e 32 21
e 32 23
e 32 30
e 33 1
e 33 2
e 33 5
e 33 7
e 33 12
e 33 13
e 33 14
e 33 15
e 33 19
e 33 22
e 33 24
e 33 25
e 33 28
e 33 31
e 34 3
e 34 4
e 34 6
e 34 7
e 34 8
e 34 11
e 34 12
e 34 14
e 34 15
e 34 18
e 34 19
e 34 20
e 34 21
e 34 24
e 34 27
e 34 29
e 34 30
e 35 2
e 35 4
e 35 8
e 35 10
e 35 14
e 35 17
e 35 18
e 35 19
e 35 22
e 35 24
e 35 25
e 35 26
e 35 27
e 35 28
e 35 29
e 35 30
e 35 31
e 35 33
e 35 34
e 36 2
e 36 3
e 36 5
e 36 6
e 36 8
e 36 9
e 36 11
e 36 13
e 36 15
e 36 17
e 36 18
e 36 20
e 36 21
e 36 22
e 36 24
e 36 26
e 36 30
e 36 34
e 36 35
e 37 2
e 37 4
e 37 5
e 37 7
e 37 9
e 37 10
e 37 11
e 37 14
e 37 18
e 37 19
e 37 20
e 37 21
e 37 22
e 37 23
e 37 25
e 37 26
e 37 27
e 37 28
e 37 29
e 37 33
e 37 35
e 38 4
e 38 5
e 38 7
e 38 8
e 38 10
e 38 12
e 38 16
e 38 17
e 38 18
e 38 19
e 38 20
e 38 21
e 38 29
e 38 30
e 38 31
e 39 4
e 39 5
e 39 6
e 39 9
e 39 10
e 39 12
e 39 14
e 39 16
e 39 19
e 39 22
e 39 24
e 39 26
e 39 27
e 39 31
e 39 32
e 39 33
e 39 34
e 39 35
e 39 36
e 40 1
e 40 3
e 40 5
e 40 6
e 40 7
e 40 10
e 40 11
e 40 12
e 40 14
e 40 16
e 40 17
e 40 18
e 40 21
e 40 25
e 40 26
e 40 27
e 40 30
e 40 31
e 40 32
e 40 33
e 40 34
e 40 36
e 41 1
e 41 2
e 41 6
e 41 8
e 41 11
e 41 13
e 41 14
e 41 15
e 41 16
e 41 21
e 41 22
e 41 23
e 41 24
e 41 25
e 41 26
e 41 27
e 41 30
e 41 31
e 41 32
e 41 34
e 41 35
e 41 36
e 41 37
e 41 40
e 42 1
e 42 2
e 42 4
e 42 5
e 42 7
e 42 9
e 42 12
e 42 14
e 42 16
e 42 17
e 42 18
e 42 19
e 42 20
e 42 24
e 42 25
e 42 26
e 42 28
e 42 30
e 42 31
e 42 33
e 42 34
e 42 36
e 42 39
e 42 40
e 43 1
e 43 5
e 43 6
e 43 7
e 43 8
e 43 10
e 43 11
e 43 12
e 43 14
e 43 16
e 43 20
e 43 22
e 43 25
e 43 27
e 43 30
e 43 32
e 43 34
e 43 35
e 43 36
e 43 38
e 43 41
e 44 3
e 44 4
e 44 5
e 44 7
e 44 8
e 44 9
e 44 11
e 44 12
e 44 14
e 44 16
e 44 18
e 44 19
e 44 21
e 44 28
e 44 29
e 44 33
e 44 35
e 44 36
e 44 38
e 44 39
e 44 40
e 44 41
e 44 42
e 44 43
e 45 1
e 45 2
e 45 7
e 45 8
e 45 9
e 45 10
e 45 11
e 45 12
e 45 13
e 45 18
e 45 19
e 45 21
e 45 24
e 45 27
e 45 28
e 45 30
e 45 32
e 45 33
e 45 39
e 45 41
e 45 42
e 45 43
e 45 44
e 46 2
e 46 3
e 46 4
e 46 5
e 46 8
e 46 9
e 46 11
e 46 13
e 46 14
e 46 15
e 46 16
e 46 17
e 46 20
e 46 22
e 46 23
e 46 24
e 46 26
e 46 28
e 46 29
e 46 31
e 46 32
e 46 33
e 46 34
e 46 35
e 46 38
e 46 40
e 46 41
e 46 42
e 46 45
e 47 1
e 47 2
e 47 4
e 47 6
e 47 8
e 47 9
e 47 12
e 47 15
e 47 16
e 47 18
e 47 21
e 47 22
e 47 24
e 47 26
e 47 27
e 47 29
e 47 30
e 47 32
e 47 33
e 47 36
e 47 38
e 47 40
e 47 41
e 47 42
e 47 43
e 47 45
e 47 46
e 48 2
e 48 5
e 48 7
e 48 8
e 48 11
e 48 14
e 48 16
e 48 17
e 48 18
e 48 19
e 48 20
e 48 21
e 48 22
e 48 23
e 48 24
e 48 25
e 48 27
e 48 28
e 48 29
e 48 30
e 48 32
e 48 34
e 48 35
e 48 37
e 48 39
e 48 40
e 48 41
e 48 42
e 48 43
e 48 45
e 49 1
e 49 2
e 49 3
e 49 4
e 49 9
e 49 11
e 49 12
e 49 13
e 49 15
e 49 19
e 49 21
e 49 22
e 49 23
e 49 26
e 49 27
e 49 31
e 49 32
e 49 34
e 49 36
e 49 37
e 49 38
e 49 40
e 49 42
e 49 46
e 50 1
e 50 3
e 50 6
e 50 8
e 50 9
e 50 11
e 50 12
e 50 13
e 50 16
e 50 19
e 50 20
e 50 25
e 50 31
e 50 32
e 50 33
e 50 34
e 50 37
e 50 38
e 50 39
e 50 41
e 50 43
e 50 44
e 50 46
e 50 47
e 51 1
e 51 4
e 51 5
e 51 7
e 51 8
e 51 11
e 51 16
e 51 21
e 51 23
e 51 24
e 51 30
e 51 31
e 51 33
e 51 36
e 51 37
e 51 39
e 51 40
e 51 41
e 51 42
e 51 44
e 51 45
e 51 47
e 51 48
e 51 50
e 52 3
e 52 4
e 52 5
e 52 9
e 52 15
e 52 18
e 52 24
e 52 26
e 52 30
e 52 32
e 52 33
e 52 35
e 52 37
e 52 38
e 52 40
e 52 41
e 52 42
e 52 43
e 52 45
e 52 46
e 52 47
e 53 3
e 53 4
e 53 5
e 53 6
e 53 9
e 53 11
e 53 12
e 53 13
e 53 14
e 53 15
e 53 16
e 53 19
e 53 20
e 53 21
e 53 22
e 53 24
e 53 29
e 53 33
e 53 34
e 53 36
e 53 37
e 53 38
e 53 39
e 53 43
e 53 44
e 53 47
e 53 51
e 53 52
e 54 3
e 54 5
e 54 6
e 54 7
e 54 8
e 54 9
e 54 11
e 54 16
e 54 17
e 54 18
e 54 19
e 54 21
e 54 22
e 54 23
e 54 24
e 54 26
e 54 27
e 54 28
e 54 35
e 54 37
e 54 38
e 54 39
e 54 41
e 54 42
e 54 43
e 54 45
e 54 48
e 54 50
e 54 51
e 54 52
e 54 53
e 55 1
e 55 2
e 55 3
e 55 5
e 55 7
e 55 8
e 55 9
e 55 15
e 55 19
e 55 20
e 55 25
e 55 28
e 55 29
e 55 30
e 55 37
e 55 38
e 55 41
e 55 46
e 55 49
e 55 51
e 55 52
e 55 53
e 56 3
e 56 9
e 56 10
e 56 12
e 56 13
e 56 15
e 56 16
e 56 24
e 56 26
e 56 27
e 56 28
e 56 33
e 56 35
e 56 37
e 56 38
e 56 40
e 56 42
e 56 43
e 56 45
e 56 46
e 56 47
e 56 48
e 56 49
e 56 50
e 56 52
e 56 53
e 56 54
e 56 55
e 57 4
e 57 7
e 57 9
e 57 11
e 57 13
e 57 15
e 57 16
e 57 18
e 57 19
e 57 28
e 57 31
e 57 34
e 57 35
e 57 36
e 57 41
e 57 42
e 57 44
e 57 45
e 57 47
e 57 48
e 57 49
e 57 50
e 57 51
e 57 52
e 57 56
e 58 3
e 58 5
e 58 6
e 58 12
e 58 13
e 58 14
e 58 16
e 58 17
e 58 19
e 58 23
e 58 25
e 58 30
e 58 33
e 58 36
e 58 37
e 58 39
e 58 40
e 58 41
e 58 42
e 58 43
e 58 44
e 58 45
e 58 48
e 58 51
e 58 54
e 58 56
e 59 3
e 59 4
e 59 5
e 59 9
e 59 11
e 59 13
e 59 14
e 59 16
e 59 17
e 59 20
e 59 22
e 59 25
e 59 29
e 59 30
e 59 31
e 59 33
e 59 35
e 59 37
e 59 39
e 59 40
e 59 41
e 59 42
e 59 44
e 59 45
e 59 46
e 59 47
e 59 48
e 59 53
e 59 54
e 59 58
e 60 1
e 60 2
e 60 3
e 60 5
e 60 6
e 60 12
e 60 13
e 60 15
e 60 16
e 60 17
e 60 18
e 60 19
e 60 20
e 60 25
e 60 27
e 60 29
e 60 31
e 60 32
